StringID     Type         x            y            demand       ReadyTime    DueDate      ServiceTime  PartnerID
D0           d            45.0         55.0         0.0          0.0          5541.0       0.0          0
C1           cp           50.0         73.0         55.0         0.0          898.0        19.0         C19
C2           cp           47.0         71.0         60.0         0.0          333.0        15.0         C20
C3           cp           47.0         70.0         45.0         0.0          676.0        11.0         C21
C4           cp           45.0         74.0         55.0         621.0        860.0        18.0         C22
C5           cp           45.0         71.0         25.0         0.0          260.0        14.0         C23
C6           cp           43.0         73.0         55.0         255.0        585.0        9.0          C24
C7           cp           27.0         80.0         65.0         30.0         491.0        24.0         C25
C8           cp           25.0         90.0         45.0         475.0        563.0        17.0         C26
C9           cp           23.0         80.0         35.0         99.0         569.0        15.0         C27
C10          cp           20.0         80.0         40.0         179.0        725.0        18.0         C28
C11          cp           35.0         55.0         75.0         10.0         386.0        14.0         C29
C12          cp           33.0         60.0         85.0         732.0        407.0        13.0         C30
C13          cp           30.0         55.0         60.0         65.0         879.0        19.0         C31
C14          cp           28.0         57.0         50.0         261.0        272.0        23.0         C32
C15          cp           28.0         60.0         55.0         546.0        358.0        10.0         C33
C16          cp           25.0         55.0         35.0         358.0        443.0        9.0          C34
C17          cp           15.0         40.0         30.0         0.0          922.0        21.0         C35
C18          cp           15.0         45.0         35.0         31.0         526.0        9.0          C36
C19          cd           50.0         70.0         -55.0        0.0          444.0        11.0         C1
C20          cd           40.0         71.0         -60.0        357.0        744.0        22.0         C2
C21          cd           43.0         75.0         -45.0        534.0        393.0        9.0          C3
C22          cd           50.0         75.0         -55.0        0.0          572.0        5.0          C4
C23          cd           47.0         73.0         -25.0        727.0        386.0        5.0          C5
C24          cd           40.0         74.0         -55.0        448.0        896.0        16.0         C6
C25          cd           28.0         85.0         -65.0        632.0        956.0        25.0         C7
C26          cd           30.0         90.0         -45.0        0.0          748.0        11.0         C8
C27          cd           27.0         90.0         -35.0        567.0        300.0        14.0         C9
C28          cd           25.0         85.0         -40.0        384.0        305.0        23.0         C10
C29          cd           20.0         85.0         -75.0        278.0        372.0        24.0         C11
C30          cd           35.0         57.0         -85.0        0.0          427.0        25.0         C12
C31          cd           33.0         57.0         -60.0        812.0        334.0        15.0         C13
C32          cd           30.0         57.0         -50.0        169.0        839.0        13.0         C14
C33          cd           30.0         60.0         -55.0        0.0          264.0        12.0         C15
C34          cd           25.0         60.0         -35.0        449.0        692.0        13.0         C16
C35          cd           13.0         45.0         -30.0        87.0         870.0        12.0         C17
C36          cd           13.0         50.0         -35.0        0.0          281.0        11.0         C18

VehicleCount : 10
VehiclePerCapacity:   60
VehicleMaxTrolleyCount : 3
TrolleyImpactRate : 20
EarlinessPenalty : 10
TardinessPenalty : 10
